c --- [ banner ] -------------------------------------------------------------
c 
c CaDiCaL Radically Simplified CDCL SAT Solver
c Copyright (c) 2016-2021 A. Biere, M. Fleury, N. Froleyks
c 
c Version 1.5.2 a5f15211db36c3956764e18194dd5bd63bf3b5e6
c g++ (GCC) 9.3.0 -Wall -Wextra -O3 -DNDEBUG
c Fri Oct 21 01:27:37 EDT 2022 Linux gra-login3 3.10.0-1160.66.1.el7.x86_64 x86_64
c 
c --- [ limit ] --------------------------------------------------------------
c 
c setting conflict limit to 200000 conflicts (due to '200000')
c 
c --- [ parsing input ] ------------------------------------------------------
c 
c reading DIMACS file from '33.cubes5977.adj'
c opening file to read '33.cubes5977.adj'
c found 'p cnf 6160 1595472' header
c parsed 1595472 clauses in 19.35 seconds process time
c closing file '33.cubes5977.adj'
c after reading 1457566757 bytes 1390.0 MB
c 
c --- [ options ] ------------------------------------------------------------
c 
c all options are set to their default value
c 
c --- [ solving ] ------------------------------------------------------------
c 
c time measured in process time since initialization
c 
c  seconds    reductions  redundant   irredundant
c          MB     restarts       trail       variables
c            level   conflicts       glue         remaining
c 
c * 19.35 1380  0 0   0    0    0  0% 0 1595422 2380 39%
c { 20.76 1438  0 0   0    0    0  0% 0 1595422 2380 39%
c i 21.68 1470 1403 0   0   17   15 44% 3 1595422 2369 38%
c i 22.26 1482 1212 0   0  108   67 37% 2 1595422 2360 38%
c i 22.42 1483 1201 0   0  125   78 37% 3 1595422 2347 38%
c i 23.68 1493 922 0   9  184  115 34% 3 1595422 2324 38%
c i 24.13 1496 718 0  11  226  138 31% 3 1595422 2306 37%
c i 26.28 1516 538 0  25  293  193 30% 8 1595422 2305 37%
c i 26.41 1516 530 0  27  297  196 30% 8 1595422 2304 37%
c - 30.32 1506 523 1  28  301  142 30% 9 402985 2304 37%
c i 30.67 1406 505 1  31  311  150 30% 10 402985 2295 37%
c i 31.24 1406 460 1  37  356  186 30% 20 402985 2288 37%
c i 31.32 1407 450 1  40  366  193 30% 21 402985 2287 37%
c i 31.96 1408 392 1  56  429  242 29% 23 402985 2286 37%
c i 32.96 1409 351 1  70  494  296 29% 25 402985 2285 37%
c i 33.27 1409 313 1  74  555  347 29% 23 402985 2275 37%
c i 33.44 1409 302 1  74  574  364 29% 23 402985 2274 37%
c i 33.46 1409 299 1  74  581  370 29% 23 402985 2273 37%
c i 33.47 1409 298 1  74  582  370 29% 23 402985 2272 37%
c i 33.57 1409 285 1  74  613  385 29% 23 402985 2271 37%
c 
c  seconds     reductions  redundant   irredundant
c          MB      restarts       trail       variables
c             level   conflicts       glue         remaining
c 
c i 33.62 1409 281 1  74  622  393 29% 22 402985 2270 37%
c i 33.65 1409 277 1  74  632  402 29% 22 402985 2269 37%
c i 33.70 1409 276 1  74  633  402 29% 22 402985 2268 37%
c i 33.79 1409 274 1  75  641  409 29% 23 402985 2267 37%
c i 33.82 1409 273 1  76  644  411 29% 23 402985 2264 37%
c i 34.01 1409 266 1  81  668  431 29% 23 402985 2263 37%
c i 34.01 1409 266 1  82  669  431 29% 23 402985 2262 37%
c i 34.48 1409 226 1  83  787  521 29% 21 402985 2261 37%
c i 34.69 1409 223 1  87  831  545 29% 22 402985 2260 37%
c i 35.95 1410 202 1 106  950  649 29% 23 402985 2259 37%
c i 36.09 1410 199 1 106  967  661 29% 23 402985 2258 37%
c i 36.30 1410 193 1 107 1003  693 29% 23 402985 2257 37%
c } 36.30 1410 193 1 107 1003  693 29% 23 402985 2257 37%
c [ 36.30 1410  0 1 107 1003  693  0% 0 402985 2257 37%
c O 36.31 1410  7 1 107 1004  694 15% 2 402985 2257 37%
c - 37.76 1541 26 2 107 1264  866 31% 20 323578 2257 37%
c i 37.96 1541 25 2 107 1481 1029 31% 19 323578 2256 37%
c i 38.23 1541 26 2 107 2035 1390 31% 21 323578 2255 37%
c i 38.24 1541 26 2 108 2042 1393 31% 21 323578 2254 37%
c ] 38.35 1541 28 2 108 2350 1618 31% 23 323578 2254 37%
c 
c  seconds    reductions  redundant   irredundant
c          MB     restarts       trail       variables
c            level   conflicts       glue         remaining
c 
c 1 38.35 1541 28 2 108 2350 1618 31% 23 323578 2254 37%
c 
c --- [ writing output ] -----------------------------------------------------
c 
c writing simplified CNF to DIMACS file 'simp/33.cubes5977.adj.simp1'
c * 38.35 1541 28 2 108 2350 1618 31% 23 323578 2254 37%
c opening file to write 'simp/33.cubes5977.adj.simp1'
c writing 'p cnf 6160 323570' header
c closing file 'simp/33.cubes5977.adj.simp1'
c after writing 150092932 bytes 143.1 MB
c wrote 323570 clauses in 1.16 seconds process time
c 
c --- [ writing extension ] --------------------------------------------------
c 
c writing extension stack to 'simp/33.cubes5977.adj.ext1'
c opening file to write 'simp/33.cubes5977.adj.ext1'
c closing file 'simp/33.cubes5977.adj.ext1'
c after writing 11276 bytes 0.0 MB
c wrote 762 witnesses in 0.00 seconds process time
c 
c --- [ result ] -------------------------------------------------------------
c 
s SATISFIABLE
c 
c --- [ run-time profiling ] -------------------------------------------------
c 
c process time taken by individual solving procedures
c (percentage relative to process time for solving)
c 
c        19.35  101.78% parse
c        19.01  100.00% search
c        15.54   81.75% unstable
c         2.06   10.82% stable
c         1.41    7.43% lucky
c         0.00    0.00% simplify
c   =================================
c        19.01   48.10% solve
c 
c last line shows process time for solving
c (percentage relative to total process time)
c 
c --- [ statistics ] ---------------------------------------------------------
c 
c chronological:               681        28.98 %  of conflicts
c conflicts:                  2350       123.64    per second
c decisions:                 18854       991.95    per second
c fixed:                       762        12.37 %  of all variables
c learned:                    2234        95.06 %  per conflict
c learned_lits:             353152       100.00 %  learned literals
c minimized:                     0         0.00 %  learned literals
c shrunken:                 176317        49.93 %  learned literals
c minishrunken:              37225        10.54 %  learned literals
c propagations:             413901         0.02 M  per second
c reduced:                      33         1.40 %  per conflict
c rephased:                      1      2350.00    interval
c restarts:                    108        21.76    interval
c stabilizing:                   1        57.32 %  of conflicts
c subsumed:                    491         0.02 %  of all clauses
c 
c seconds are measured in process time for solving
c 
c --- [ resources ] ----------------------------------------------------------
c 
c total process time since initialization:        39.51    seconds
c total real time since initialization:           45.39    seconds
c maximum resident set size of process:         1541.12    MB
c 
c --- [ shutting down ] ------------------------------------------------------
c 
c exit 10
WARNING! DIMACS header mismatch: wrong number of variables.
============================[ Problem Statistics ]=============================
|                                                                             |
|  Number of variables:          6120                                         |
|  Number of clauses:          323570                                         |
|  Parse time:                   2.08 s                                       |
|  Simplification time:          0.04 s                                       |
|                                                                             |
============================[ Search Statistics ]====================================================
| Conflicts |          ORIGINAL         |          LEARNT          | Num Sols |      SUBGRAPHS      |
|           |    Vars  Clauses Literals |    Limit  Clauses Lit/Cl |          | Canonical Noncanon. |
=====================================================================================================
|       167 |    6028   323637 32531351 |     2000      167     20 |        0 |        59        67 |
|       867 |    6028   324187 32540466 |     2000      867     16 |        0 |       259       617 |
|      2084 |    6028   325179 32556897 |     3600     1084     14 |        0 |       657      1609 |
|      3471 |    6028   326229 32574161 |     3600     2471     15 |        0 |      1094      2659 |
|      5090 |    6028   327342 32591850 |     5000     2290     13 |        0 |      1474      3772 |
|      8306 |    6028   329799 32631688 |     6302     3008     12 |        0 |      2388      6229 |
|     12516 |    6028   332870 32677886 |     7552     4068     12 |        0 |      3348      9300 |
|     19508 |    6028   338154 32744681 |     8779     7287     11 |        0 |      4797     14584 |
|     35150 |    6028   351234 32923557 |    12403     7953     10 |        0 |      8271     27664 |
|     69365 |    6028   381605 33329265 |    17209    13774     11 |        0 |     13952     58035 |
=====================================================================================================
Number of solutions   : 0
Canonical subgraphs   : 19752          (36 /sec)
          order  3    : 1              (200000 /sec)
          order  4    : 1              (500000 /sec)
          order  5    : 1              (250000 /sec)
          order  6    : 1              (55556 /sec)
          order  7    : 1              (8696 /sec)
          order  8    : 2              (1361 /sec)
          order  9    : 7              (354 /sec)
          order 10    : 38             (120 /sec)
          order 11    : 273            (55 /sec)
          order 12    : 1868           (27 /sec)
          order 13    : 17475          (37 /sec)
          order 14    : 84             (18 /sec)
          order 15    : 0              (-nan /sec)
          order 16    : 0              (-nan /sec)
          order 17    : 0              (-nan /sec)
          order 18    : 0              (-nan /sec)
          order 19    : 0              (-nan /sec)
          order 20    : 0              (-nan /sec)
          order 21    : 0              (-nan /sec)
          order 22    : 0              (-nan /sec)
Noncanonical subgraphs: 89913          (361 /sec)
          order  3    : 0              (-nan /sec)
          order  4    : 0              (-nan /sec)
          order  5    : 0              (-nan /sec)
          order  6    : 0              (-nan /sec)
          order  7    : 0              (-nan /sec)
          order  8    : 0              (-nan /sec)
          order  9    : 0              (-nan /sec)
          order 10    : 0              (-nan /sec)
          order 11    : 0              (-nan /sec)
          order 12    : 0              (-nan /sec)
          order 13    : 28407          (2011 /sec)
          order 14    : 61180          (262 /sec)
          order 15    : 326            (244 /sec)
          order 16    : 0              (-nan /sec)
          order 17    : 0              (-nan /sec)
          order 18    : 0              (-nan /sec)
          order 19    : 0              (-nan /sec)
          order 20    : 0              (-nan /sec)
          order 21    : 0              (-nan /sec)
Canonicity checking   : 548.696 s
Noncanonicity checking: 249.212 s
Total canonicity time : 797.908 s
database reductions   : 16
restarts              : 277
conflicts             : 106616         (128 /sec)
decisions             : 214076         (0.00 % random) (256 /sec)
propagations          : 12720647       (15219 /sec)
conflict literals     : 1318261        (60.97 % deleted)
actual reward         : 0.035768
Memory used           : 237.00 MB
CPU time              : 835.824 s

UNSATISFIABLE
